7
10
20
90
45
74
15
110
57
88
40
29
8
40
50
30
25
90
65
45
55
12
15
10
25
45
-10
88
19
21
90
10
60
20
12
30
20
50
40
65
95
90
10
45
25
20
10
6
45
80
90
10
20
55
6
70
20
10
90
80
30
20
8
14
60
34
20
40
11
19
29
50
90
1
45
70
21
15
66
32
40
54
